objective value:                                  -13
t_n_7                                               1 	(obj:-1)
t_n_140                                             1 	(obj:-1)
t_n_175                                             1 	(obj:-1)
t_n_293                                             1 	(obj:-1)
t_n_604                                             1 	(obj:-1)
t_n_659                                             1 	(obj:-1)
t_n_662                                             1 	(obj:-1)
t_n_678                                             1 	(obj:-1)
t_n_692                                             1 	(obj:-1)
t_n_727                                             1 	(obj:-1)
t_n_797                                             1 	(obj:-1)
t_n_809                                             1 	(obj:-1)
t_n_817                                             1 	(obj:-1)
